#######################################
### Exact MIP solver for the HHCRSP ###
#######################################
-- Instance file: new-instances/HHCRSP_200_40_88_1.0_R_RC.txt
-- Max threads: 4
-- Time limit: 999999 seconds
-- Use initial solution: No
Trivial flow violations prevented generating 358249 variables.
Version identifier: 20.1.0.0 | 2020-11-10 | 9bedb6d68
CPXPARAM_Threads                                 4
CPXPARAM_TimeLimit                               999999
Parallel mode: deterministic, using up to 4 threads for concurrent optimization:
 * Starting dual Simplex on 1 thread...
 * Starting Barrier on 3 threads...
Tried aggregator 1 time.
LP Presolve eliminated 21348 rows and 4950 columns.
Reduced LP has 390520 rows, 372299 columns, and 6571140 nonzeros.
Presolve time = 14.05 sec. (1527.09 ticks)
Symmetry aggregator did 575076 additional substitutions.

Iteration log . . .
Iteration:     1   Dual objective     =             0.000000

Dual crossover.
  Dual:  Fixing 910 variables.
      909 DMoves:  Infeasibility  4.58688644e-13  Objective  2.67666667e+02
        0 DMoves:  Infeasibility  3.17745831e-13  Objective  2.67666667e+02
  Dual:  Pushed 29, exchanged 881.
  Primal:  Fixing 520 variables.
      519 PMoves:  Infeasibility  5.55111512e-17  Objective  2.67666667e+02
        0 PMoves:  Infeasibility  6.66133815e-16  Objective  2.67666667e+02
  Primal:  Pushed 418, exchanged 102.

Dual simplex solved model.


Solution status from MIP model:
-- Processing time: 21.628 sec.
-- Memory used: 427.891 MB
-- Best bound: inf
-- Obj value: 267.667
-- Gap: inf%
-- Total distance: 803
-- Total tardiness: 0
-- Largest tardiness: 0
